NAME : G100_2321_01
COMMENT : Generated CVRP instance (n=100)
TYPE : CVRP
DIMENSION : 101
EDGE_WEIGHT_TYPE : EUC_2D
CAPACITY : 26
NODE_COORD_SECTION
1    500  500 
2    488  543 
3    911  134 
4    515  23  
5    684  308 
6    109  86  
7    236  425 
8    940  288 
9    209  273 
10   499  682 
11   694  741 
12   69   88  
13   965  249 
14   713  229 
15   764  311 
16   168  395 
17   843  323 
18   209  643 
19   887  258 
20   102  806 
21   182  387 
22   486  243 
23   292  158 
24   217  308 
25   264  114 
26   480  38  
27   108  584 
28   156  633 
29   223  369 
30   94   786 
31   25   424 
32   545  560 
33   900  141 
34   91   637 
35   100  420 
36   26   434 
37   908  937 
38   523  465 
39   714  8   
40   265  5   
41   925  728 
42   594  171 
43   108  543 
44   496  87  
45   197  391 
46   562  715 
47   908  122 
48   540  28  
49   13   130 
50   572  548 
51   965  415 
52   933  215 
53   141  135 
54   834  248 
55   684  41  
56   216  357 
57   15   614 
58   570  995 
59   911  196 
60   1    41  
61   601  9   
62   710  44  
63   246  382 
64   312  510 
65   208  291 
66   728  253 
67   871  116 
68   909  219 
69   802  520 
70   242  533 
71   133  745 
72   930  214 
73   633  9   
74   659  211 
75   591  67  
76   255  579 
77   219  250 
78   107  271 
79   200  392 
80   872  266 
81   920  141 
82   602  918 
83   564  879 
84   584  882 
85   11   593 
86   929  217 
87   113  296 
88   299  59  
89   720  534 
90   4    517 
91   17   273 
92   249  842 
93   593  908 
94   12   496 
95   6    583 
96   886  431 
97   56   819 
98   999  244 
99   204  391 
100  223  587 
101  225  377 
DEMAND_SECTION
1    0   
2    9   
3    10  
4    10  
5    4   
6    1   
7    5   
8    4   
9    10  
10   4   
11   3   
12   4   
13   3   
14   10  
15   6   
16   5   
17   8   
18   1   
19   5   
20   8   
21   8   
22   7   
23   5   
24   3   
25   6   
26   7   
27   3   
28   2   
29   6   
30   1   
31   4   
32   9   
33   4   
34   3   
35   1   
36   9   
37   8   
38   7   
39   6   
40   10  
41   3   
42   9   
43   2   
44   6   
45   4   
46   8   
47   7   
48   8   
49   8   
50   7   
51   2   
52   1   
53   8   
54   9   
55   10  
56   8   
57   4   
58   3   
59   9   
60   4   
61   6   
62   7   
63   1   
64   5   
65   5   
66   9   
67   7   
68   8   
69   7   
70   1   
71   1   
72   6   
73   1   
74   2   
75   6   
76   8   
77   7   
78   8   
79   9   
80   4   
81   8   
82   7   
83   3   
84   4   
85   10  
86   8   
87   4   
88   4   
89   4   
90   6   
91   10  
92   6   
93   1   
94   5   
95   3   
96   3   
97   2   
98   7   
99   6   
100  9   
101  9   
DEPOT_SECTION
1
-1
EOF
